
Gurobi 9.5.1 (linux64) logging started Sun Jun 19 11:05:43 2022

Set parameter LogFile to value "../results/logs/log_socfb-Northeastern19_33_2_2022_06_19_11_04.log"
Gurobi Optimizer version 9.5.1 build v9.5.1rc2 (linux64)
Thread count: 8 physical cores, 8 logical processors, using up to 8 threads
Optimize a model with 2493 rows, 27764 columns and 107718 nonzeros
Model fingerprint: 0xd5abe4ec
Variable types: 0 continuous, 27764 integer (27764 binary)
Coefficient statistics:
  Matrix range     [1e+00, 3e+01]
  Objective range  [1e+00, 1e+00]
  Bounds range     [1e+00, 1e+00]
  RHS range        [1e+00, 2e+00]
Found heuristic solution: objective 7008.0000000
Presolve removed 169 rows and 22542 columns
Presolve time: 0.08s
Presolved: 2324 rows, 5222 columns, 27756 nonzeros
Found heuristic solution: objective 7010.0000000
Variable types: 0 continuous, 5222 integer (4848 binary)
Warning: Markowitz tolerance tightened to 0.03125

Root relaxation: objective 7.582576e+03, 1246 iterations, 0.06 seconds (0.10 work units)

    Nodes    |    Current Node    |     Objective Bounds      |     Work
 Expl Unexpl |  Obj  Depth IntInf | Incumbent    BestBd   Gap | It/Node Time

     0     0 7582.57606    0  950 7010.00000 7582.57606  8.17%     -    0s
H    0     0                    7012.0000000 7582.57606  8.14%     -    0s
H    0     0                    7020.0000000 7582.57606  8.01%     -    0s
H    0     0                    7021.0000000 7169.75042  2.12%     -    0s
     0     0 7167.28580    0  529 7021.00000 7167.28580  2.08%     -    0s
H    0     0                    7025.0000000 7167.28580  2.03%     -    1s
     0     0 7123.09201    0  440 7025.00000 7123.09201  1.40%     -    1s
     0     0 7120.25130    0  517 7025.00000 7120.25130  1.36%     -    1s
     0     0 7119.80269    0  490 7025.00000 7119.80269  1.35%     -    1s
     0     0 7119.70411    0  411 7025.00000 7119.70411  1.35%     -    1s
     0     0 7057.69175    0  610 7025.00000 7057.69175  0.47%     -    1s
     0     0 7053.28046    0  664 7025.00000 7053.28046  0.40%     -    1s
     0     0 7052.16570    0  674 7025.00000 7052.16570  0.39%     -    1s
     0     0 7051.70206    0  680 7025.00000 7051.70206  0.38%     -    1s
     0     0 7046.07203    0  721 7025.00000 7046.07203  0.30%     -    2s
     0     0 7044.56611    0  727 7025.00000 7044.56611  0.28%     -    2s
     0     0 7043.84069    0  722 7025.00000 7043.84069  0.27%     -    2s
     0     0 7043.55829    0  759 7025.00000 7043.55829  0.26%     -    2s
     0     0 7041.57003    0  740 7025.00000 7041.57003  0.24%     -    3s
     0     0 7041.56808    0  711 7025.00000 7041.56808  0.24%     -    3s
     0     0 7041.56808    0  711 7025.00000 7041.56808  0.24%     -    3s
     0     2 7040.83980    0  711 7025.00000 7040.83980  0.23%     -    3s
    57    20 7036.79500    9  654 7025.00000 7037.52105  0.18%   295    5s
   374    26 7032.34603   22  718 7025.00000 7033.27429  0.12%   250   10s

Cutting planes:
  Gomory: 5
  Cover: 254
  Implied bound: 2
  MIR: 460
  StrongCG: 34
  GUB cover: 496
  Zero half: 9
  RLT: 681
  Relax-and-lift: 1

Explored 695 nodes (171252 simplex iterations) in 13.85 seconds (25.66 work units)
Thread count was 8 (of 8 available processors)

Solution count 6: 7025 7021 7020 ... 7008

Optimal solution found (tolerance 0.00e+00)
Best objective 7.025000000000e+03, best bound 7.025000000000e+03, gap 0.0000%
